NAME : single.58169.tour
COMMENT : Length = 58169
COMMENT : Found by LKH [Keld Helsgaun] Sun Dec  8 20:38:07 2024
TYPE : TOUR
DIMENSION : 42
TOUR_SECTION
1
2
4
3
5
6
7
8
10
9
11
12
13
14
15
16
17
18
19
20
42
41
40
39
38
37
36
35
34
33
32
31
30
29
28
27
26
25
24
23
21
22
-1
EOF
